\ENCODING=ISO-8859-1
\Problem name: ilog.cplex

Minimize
 obj1: 108343 x1 + 108124 x2 + 98608 x3 + 108633 x4 + 93462 x5 + 107886 x6
       + 103884 x7 + 105244 x8 + 101234 x9 + 96160 x10 + 108059 x11 + 91687 x12
       + 109295 x13 + 91116 x14 + 96840 x15 + 90845 x16 + 93588 x17
       + 108246 x18 + 102511 x19 + 91128 x20 + 101303 x21 + 102195 x22
       + 97231 x23 + 92278 x24 + 94828 x25 + 97474 x26 + 100466 x27
       + 102983 x28 + 92724 x29 + 102300 x30 + 101175 x31 + 104532 x32
       + 94369 x33 + 97461 x34 + 101334 x35 + 90240 x36 + 91189 x37 + 90405 x38
       + 98948 x39 + 96483 x40 + 99271 x41 + 103701 x42 + 105932 x43
       + 97924 x44 + 95715 x45 + 106536 x46 + 99044 x47 + 106863 x48
       + 104172 x49 + 98115 x50 + 90540 x51 + 94662 x52 + 93829 x53 + 92629 x54
       + 99277 x55 + 101757 x56 + 90471 x57 + 96862 x58 + 102719 x59
       + 102075 x60 + 97468 x61 + 96698 x62 + 106514 x63 + 92088 x64
       + 98321 x65 + 97828 x66 + 106049 x67 + 104450 x68 + 97571 x69
       + 107023 x70 + 98652 x71 + 94266 x72 + 107116 x73 + 101447 x74
       + 107626 x75 + 99018 x76 + 97984 x77 + 109878 x78 + 97970 x79
       + 91188 x80 + 108565 x81 + 100589 x82 + 103892 x83 + 105652 x84
       + 98890 x85 + 103623 x86 + 103969 x87 + 95982 x88 + 93125 x89
       + 98770 x90 + 96007 x91 + 90595 x92 + 107331 x93 + 91211 x94 + 91306 x95
       + 95633 x96 + 105042 x97 + 103044 x98 + 96354 x99 + 93056 x100
       + 99303 x101 + 90828 x102 + 98893 x103 + 109614 x104 + 106566 x105
       + 96782 x106 + 104850 x107 + 105225 x108 + 95190 x109 + 94426 x110
       + 102809 x111 + 107708 x112 + 99300 x113 + 98215 x114 + 103486 x115
       + 104943 x116 + 107348 x117 + 91133 x118 + 93114 x119 + 95201 x120
       + 91734 x121 + 103684 x122 + 97476 x123 + 99638 x124 + 98678 x125
       + 105074 x126 + 103603 x127 + 90023 x128 + 101897 x129 + 96045 x130
       + 101376 x131 + 96822 x132 + 90595 x133 + 91401 x134 + 109938 x135
       + 104987 x136 + 103374 x137 + 107257 x138 + 91864 x139 + 102691 x140
       + 95855 x141 + 109287 x142 + 107402 x143 + 92180 x144 + 96075 x145
       + 95629 x146 + 91478 x147 + 92042 x148 + 108571 x149 + 109407 x150
       + 90076 x151 + 100735 x152 + 108389 x153 + 100765 x154 + 93288 x155
       + 108915 x156 + 92240 x157 + 93746 x158 + 98548 x159 + 106386 x160
       + 105562 x161 + 99494 x162 + 109505 x163 + 108431 x164 + 101507 x165
       + 93971 x166 + 103484 x167 + 105835 x168 + 90655 x169 + 105766 x170
       + 103625 x171 + 103077 x172 + 108747 x173 + 97548 x174 + 90587 x175
       + 109978 x176 + 103796 x177 + 93327 x178 + 103062 x179 + 93515 x180
       + 98560 x181 + 90396 x182 + 105008 x183 + 94230 x184 + 108984 x185
       + 99005 x186 + 90183 x187 + 109378 x188 + 103854 x189 + 94079 x190
       + 97456 x191 + 107010 x192 + 107393 x193 + 100941 x194 + 98240 x195
       + 95771 x196 + 95923 x197 + 94983 x198 + 95131 x199 + 100576 x200
       + 90158 x201 + 106732 x202 + 105348 x203 + 94622 x204 + 107066 x205
       + 99164 x206 + 92400 x207 + 107517 x208 + 91886 x209 + 98461 x210
       + 93808 x211 + 91485 x212 + 98000 x213 + 109805 x214 + 107560 x215
       + 98216 x216 + 109964 x217 + 105696 x218 + 105454 x219 + 105220 x220
       + 93379 x221 + 95912 x222 + 97612 x223 + 92435 x224 + 104142 x225
       + 95397 x226 + 99183 x227 + 107353 x228 + 99213 x229 + 99228 x230
       + 107612 x231 + 90069 x232 + 101188 x233 + 92248 x234 + 106844 x235
       + 98454 x236 + 99774 x237 + 105041 x238 + 93441 x239 + 98003 x240
       + 100974 x241 + 96562 x242 + 107619 x243 + 101800 x244 + 95045 x245
       + 95075 x246 + 100433 x247 + 95713 x248 + 93005 x249 + 96910 x250
       + 105942 x251 + 96284 x252 + 101879 x253 + 109953 x254 + 97892 x255
       + 107180 x256 + 92414 x257 + 104810 x258 + 90462 x259 + 103339 x260
       + 107989 x261 + 99814 x262 + 109687 x263 + 104728 x264 + 105794 x265
       + 91534 x266 + 106577 x267 + 96948 x268 + 92507 x269 + 99214 x270
       + 93479 x271 + 99310 x272 + 101708 x273 + 108625 x274 + 105536 x275
       + 105861 x276 + 100954 x277 + 98477 x278 + 95097 x279 + 100350 x280
       + 92649 x281 + 90849 x282 + 98458 x283 + 92211 x284 + 104797 x285
       + 106027 x286 + 91577 x287 + 97411 x288 + 95195 x289 + 101669 x290
       + 94191 x291 + 95328 x292 + 95808 x293 + 96412 x294 + 90258 x295
       + 90868 x296 + 102802 x297 + 98833 x298 + 106699 x299 + 204014 x300
       + 182195 x301 + 189022 x302 + 207656 x303 + 208396 x304 + 210358 x305
       + 215228 x306 + 181772 x307 + 214045 x308 + 189331 x309 + 197191 x310
       + 206872 x311 + 198588 x312 + 213448 x313 + 195058 x314 + 218089 x315
       + 196719 x316 + 209428 x317 + 207221 x318 + 190783 x319 + 207364 x320
       + 203754 x321 + 197090 x322 + 199347 x323 + 193452 x324 + 219401 x325
       + 204767 x326 + 208990 x327 + 219973 x328 + 200668 x329 + 209910 x330
       + 213954 x331 + 213641 x332 + 180203 x333 + 184619 x334 + 207842 x335
       + 201939 x336 + 201422 x337 + 201461 x338 + 207705 x339 + 217460 x340
       + 212370 x341 + 181806 x342 + 193278 x343 + 215374 x344 + 213668 x345
       + 203409 x346 + 206214 x347 + 187539 x348 + 213561 x349 + 193734 x350
       + 181400 x351 + 206141 x352 + 217157 x353 + 196796 x354 + 193431 x355
       + 192972 x356 + 194815 x357 + 216333 x358 + 215998 x359 + 37642 x360
Subject To
 c1:   - x4 - x7 + x12 - x13 - x16 + x38 + x40 - x43 - x48 + x55 - x56  = 0
 c2:   - x64 - x67 + x72 - x73 - x76 + x98 + x100 - x103 - x108 + x115 - x116
        = 0
 c3:   - x124 - x127 + x132 - x133 - x136 + x158 + x160 - x163 - x168 + x175
       - x176  = -1
 c4:   - x184 - x187 + x192 - x193 - x196 + x218 + x220 - x223 - x228 + x235
       - x236  = 0
 c5:   - x244 - x247 + x252 - x253 - x256 + x278 + x280 - x283 - x288 + x295
       - x296  = 0
 c6:   x15 - x18 - x21 + x25 + x28 - x34 + x36 - x44 - x49 + x56  = 1
 c7:   x75 - x78 - x81 + x85 + x88 - x94 + x96 - x104 - x109 + x116  = 1
 c8:   x135 - x138 - x141 + x145 + x148 - x154 + x156 - x164 - x169 + x176  = 0
 c9:   x195 - x198 - x201 + x205 + x208 - x214 + x216 - x224 - x229 + x236  = 0
 c10:  x255 - x258 - x261 + x265 + x268 - x274 + x276 - x284 - x289 + x296  = 0
 c11:  - x3 + x7 + x9 + x11 - x14 + x20 + x26 - x33 - x41 + x49 - x50 - x53
        = 0
 c12:  - x63 + x67 + x69 + x71 - x74 + x80 + x86 - x93 - x101 + x109 - x110
       - x113  = -1
 c13:  - x123 + x127 + x129 + x131 - x134 + x140 + x146 - x153 - x161 + x169
       - x170 - x173  = 0
 c14:  - x183 + x187 + x189 + x191 - x194 + x200 + x206 - x213 - x221 + x229
       - x230 - x233  = 0
 c15:  - x243 + x247 + x249 + x251 - x254 + x260 + x266 - x273 - x281 + x289
       - x290 - x293  = 0
 c16:  x3 + x22 + x24 + x30 - x31 - x42 - x45 - x47 + x48 + x57  = 0
 c17:  x63 + x82 + x84 + x90 - x91 - x102 - x105 - x107 + x108 + x117  = 0
 c18:  x123 + x142 + x144 + x150 - x151 - x162 - x165 - x167 + x168 + x177  = 0
 c19:  x183 + x202 + x204 + x210 - x211 - x222 - x225 - x227 + x228 + x237  = 0
 c20:  x243 + x262 + x264 + x270 - x271 - x282 - x285 - x287 + x288 + x297  = 1
 c21:  x4 - x25 - x26 + x29 - x37 - x40 + x42 + x46 - x52 + x53 - x57 + x58
       - x59  = 0
 c22:  x64 - x85 - x86 + x89 - x97 - x100 + x102 + x106 - x112 + x113 - x117
       + x118 - x119  = 0
 c23:  x124 - x145 - x146 + x149 - x157 - x160 + x162 + x166 - x172 + x173
       - x177 + x178 - x179  = 0
 c24:  x184 - x205 - x206 + x209 - x217 - x220 + x222 + x226 - x232 + x233
       - x237 + x238 - x239  = 0
 c25:  x244 - x265 - x266 + x269 - x277 - x280 + x282 + x286 - x292 + x293
       - x297 + x298 - x299  = 0
 c26:  - x2 + x6 - x9 - x15 + x23 - x29 - x39 + x43 + x51 + x54 - x55 - x60
        = -1
 c27:  - x62 + x66 - x69 - x75 + x83 - x89 - x99 + x103 + x111 + x114 - x115
       - x120  = 0
 c28:  - x122 + x126 - x129 - x135 + x143 - x149 - x159 + x163 + x171 + x174
       - x175 - x180  = 0
 c29:  - x182 + x186 - x189 - x195 + x203 - x209 - x219 + x223 + x231 + x234
       - x235 - x240  = 0
 c30:  - x242 + x246 - x249 - x255 + x263 - x269 - x279 + x283 + x291 + x294
       - x295 - x300  = 0
 c31:  x2 + x8 + x10 + x13 - x17 - x24 + x27 - x32 + x37 + x44 + x50 - x51  = 0
 c32:  x62 + x68 + x70 + x73 - x77 - x84 + x87 - x92 + x97 + x104 + x110 - x111
        = 0
 c33:  x122 + x128 + x130 + x133 - x137 - x144 + x147 - x152 + x157 + x164
       + x170 - x171  = 0
 c34:  x182 + x188 + x190 + x193 - x197 - x204 + x207 - x212 + x217 + x224
       + x230 - x231  = 1
 c35:  x242 + x248 + x250 + x253 - x257 - x264 + x267 - x272 + x277 + x284
       + x290 - x291  = 0
 c36:  - x1 - x6 - x10 - x11 - x12 - x19 + x32 + x34 + x35 + x41 - x46 + x47
       + x52 + x60  = 0
 c37:  - x61 - x66 - x70 - x71 - x72 - x79 + x92 + x94 + x95 + x101 - x106
       + x107 + x112 + x120  = 0
 c38:  - x121 - x126 - x130 - x131 - x132 - x139 + x152 + x154 + x155 + x161
       - x166 + x167 + x172 + x180  = 1
 c39:  - x181 - x186 - x190 - x191 - x192 - x199 + x212 + x214 + x215 + x221
       - x226 + x227 + x232 + x240  = 0
 c40:  - x241 - x246 - x250 - x251 - x252 - x259 + x272 + x274 + x275 + x281
       - x286 + x287 + x292 + x300  = 0
 c41:  x5 + x16 + x19 - x20 + x21 - x22 - x27 + x33 - x36 - x38 + x45 - x54
       - x58 + x59  = 0
 c42:  x65 + x76 + x79 - x80 + x81 - x82 - x87 + x93 - x96 - x98 + x105 - x114
       - x118 + x119  = 0
 c43:  x125 + x136 + x139 - x140 + x141 - x142 - x147 + x153 - x156 - x158
       + x165 - x174 - x178 + x179  = 0
 c44:  x185 + x196 + x199 - x200 + x201 - x202 - x207 + x213 - x216 - x218
       + x225 - x234 - x238 + x239  = -1
 c45:  x245 + x256 + x259 - x260 + x261 - x262 - x267 + x273 - x276 - x278
       + x285 - x294 - x298 + x299  = 0
 c46:  x1 - x5 - x8 + x14 + x17 + x18 - x23 - x28 - x30 + x31 - x35 + x39  = 0
 c47:  x61 - x65 - x68 + x74 + x77 + x78 - x83 - x88 - x90 + x91 - x95 + x99
        = 0
 c48:  x121 - x125 - x128 + x134 + x137 + x138 - x143 - x148 - x150 + x151
       - x155 + x159  = 0
 c49:  x181 - x185 - x188 + x194 + x197 + x198 - x203 - x208 - x210 + x211
       - x215 + x219  = 0
 c50:  x241 - x245 - x248 + x254 + x257 + x258 - x263 - x268 - x270 + x271
       - x275 + x279  = -1
 c51:  4 x1 + 4 x61 + 4 x121 + 4 x181 + 4 x241 - 10 x301 <= 0
 c52:  4 x2 + 4 x62 + 4 x122 + 4 x182 + 4 x242 - 10 x302 <= 0
 c53:  4 x3 + 4 x63 + 4 x123 + 4 x183 + 4 x243 - 10 x303 <= 0
 c54:  4 x4 + 4 x64 + 4 x124 + 4 x184 + 4 x244 - 11 x304 <= 0
 c55:  4 x5 + 4 x65 + 4 x125 + 4 x185 + 4 x245 - 10 x305 <= 0
 c56:  4 x6 + 4 x66 + 4 x126 + 4 x186 + 4 x246 - 10 x306 <= 0
 c57:  4 x7 + 4 x67 + 4 x127 + 4 x187 + 4 x247 - 10 x307 <= 0
 c58:  4 x8 + 4 x68 + 4 x128 + 4 x188 + 4 x248 - 9 x308 <= 0
 c59:  4 x9 + 4 x69 + 4 x129 + 4 x189 + 4 x249 - 11 x309 <= 0
 c60:  4 x10 + 4 x70 + 4 x130 + 4 x190 + 4 x250 - 11 x310 <= 0
 c61:  4 x11 + 4 x71 + 4 x131 + 4 x191 + 4 x251 - 10 x311 <= 0
 c62:  4 x12 + 4 x72 + 4 x132 + 4 x192 + 4 x252 - 10 x312 <= 0
 c63:  4 x13 + 4 x73 + 4 x133 + 4 x193 + 4 x253 - 9 x313 <= 0
 c64:  4 x14 + 4 x74 + 4 x134 + 4 x194 + 4 x254 - 11 x314 <= 0
 c65:  4 x15 + 4 x75 + 4 x135 + 4 x195 + 4 x255 - 11 x315 <= 0
 c66:  4 x16 + 4 x76 + 4 x136 + 4 x196 + 4 x256 - 11 x316 <= 0
 c67:  4 x17 + 4 x77 + 4 x137 + 4 x197 + 4 x257 - 10 x317 <= 0
 c68:  4 x18 + 4 x78 + 4 x138 + 4 x198 + 4 x258 - 10 x318 <= 0
 c69:  4 x19 + 4 x79 + 4 x139 + 4 x199 + 4 x259 - 10 x319 <= 0
 c70:  4 x20 + 4 x80 + 4 x140 + 4 x200 + 4 x260 - 10 x320 <= 0
 c71:  4 x21 + 4 x81 + 4 x141 + 4 x201 + 4 x261 - 10 x321 <= 0
 c72:  4 x22 + 4 x82 + 4 x142 + 4 x202 + 4 x262 - 10 x322 <= 0
 c73:  4 x23 + 4 x83 + 4 x143 + 4 x203 + 4 x263 - 9 x323 <= 0
 c74:  4 x24 + 4 x84 + 4 x144 + 4 x204 + 4 x264 - 9 x324 <= 0
 c75:  4 x25 + 4 x85 + 4 x145 + 4 x205 + 4 x265 - 9 x325 <= 0
 c76:  4 x26 + 4 x86 + 4 x146 + 4 x206 + 4 x266 - 9 x326 <= 0
 c77:  4 x27 + 4 x87 + 4 x147 + 4 x207 + 4 x267 - 9 x327 <= 0
 c78:  4 x28 + 4 x88 + 4 x148 + 4 x208 + 4 x268 - 9 x328 <= 0
 c79:  4 x29 + 4 x89 + 4 x149 + 4 x209 + 4 x269 - 9 x329 <= 0
 c80:  4 x30 + 4 x90 + 4 x150 + 4 x210 + 4 x270 - 10 x330 <= 0
 c81:  4 x31 + 4 x91 + 4 x151 + 4 x211 + 4 x271 - 10 x331 <= 0
 c82:  4 x32 + 4 x92 + 4 x152 + 4 x212 + 4 x272 - 10 x332 <= 0
 c83:  4 x33 + 4 x93 + 4 x153 + 4 x213 + 4 x273 - 9 x333 <= 0
 c84:  4 x34 + 4 x94 + 4 x154 + 4 x214 + 4 x274 - 11 x334 <= 0
 c85:  4 x35 + 4 x95 + 4 x155 + 4 x215 + 4 x275 - 9 x335 <= 0
 c86:  4 x36 + 4 x96 + 4 x156 + 4 x216 + 4 x276 - 10 x336 <= 0
 c87:  4 x37 + 4 x97 + 4 x157 + 4 x217 + 4 x277 - 10 x337 <= 0
 c88:  4 x38 + 4 x98 + 4 x158 + 4 x218 + 4 x278 - 10 x338 <= 0
 c89:  4 x39 + 4 x99 + 4 x159 + 4 x219 + 4 x279 - 11 x339 <= 0
 c90:  4 x40 + 4 x100 + 4 x160 + 4 x220 + 4 x280 - 9 x340 <= 0
 c91:  4 x41 + 4 x101 + 4 x161 + 4 x221 + 4 x281 - 9 x341 <= 0
 c92:  4 x42 + 4 x102 + 4 x162 + 4 x222 + 4 x282 - 10 x342 <= 0
 c93:  4 x43 + 4 x103 + 4 x163 + 4 x223 + 4 x283 - 10 x343 <= 0
 c94:  4 x44 + 4 x104 + 4 x164 + 4 x224 + 4 x284 - 9 x344 <= 0
 c95:  4 x45 + 4 x105 + 4 x165 + 4 x225 + 4 x285 - 10 x345 <= 0
 c96:  4 x46 + 4 x106 + 4 x166 + 4 x226 + 4 x286 - 10 x346 <= 0
 c97:  4 x47 + 4 x107 + 4 x167 + 4 x227 + 4 x287 - 10 x347 <= 0
 c98:  4 x48 + 4 x108 + 4 x168 + 4 x228 + 4 x288 - 11 x348 <= 0
 c99:  4 x49 + 4 x109 + 4 x169 + 4 x229 + 4 x289 - 10 x349 <= 0
 c100: 4 x50 + 4 x110 + 4 x170 + 4 x230 + 4 x290 - 10 x350 <= 0
 c101: 4 x51 + 4 x111 + 4 x171 + 4 x231 + 4 x291 - 9 x351 <= 0
 c102: 4 x52 + 4 x112 + 4 x172 + 4 x232 + 4 x292 - 11 x352 <= 0
 c103: 4 x53 + 4 x113 + 4 x173 + 4 x233 + 4 x293 - 11 x353 <= 0
 c104: 4 x54 + 4 x114 + 4 x174 + 4 x234 + 4 x294 - 10 x354 <= 0
 c105: 4 x55 + 4 x115 + 4 x175 + 4 x235 + 4 x295 - 9 x355 <= 0
 c106: 4 x56 + 4 x116 + 4 x176 + 4 x236 + 4 x296 - 9 x356 <= 0
 c107: 4 x57 + 4 x117 + 4 x177 + 4 x237 + 4 x297 - 9 x357 <= 0
 c108: 4 x58 + 4 x118 + 4 x178 + 4 x238 + 4 x298 - 10 x358 <= 0
 c109: 4 x59 + 4 x119 + 4 x179 + 4 x239 + 4 x299 - 10 x359 <= 0
 c110: 4 x60 + 4 x120 + 4 x180 + 4 x240 + 4 x300 - 17 x360 <= 0
Bounds
 0 <= x1 <= 1
 0 <= x2 <= 1
 0 <= x3 <= 1
 0 <= x4 <= 1
 0 <= x5 <= 1
 0 <= x6 <= 1
 0 <= x7 <= 1
 0 <= x8 <= 1
 0 <= x9 <= 1
 0 <= x10 <= 1
 0 <= x11 <= 1
 0 <= x12 <= 1
 0 <= x13 <= 1
 0 <= x14 <= 1
 0 <= x15 <= 1
 0 <= x16 <= 1
 0 <= x17 <= 1
 0 <= x18 <= 1
 0 <= x19 <= 1
 0 <= x20 <= 1
 0 <= x21 <= 1
 0 <= x22 <= 1
 0 <= x23 <= 1
 0 <= x24 <= 1
 0 <= x25 <= 1
 0 <= x26 <= 1
 0 <= x27 <= 1
 0 <= x28 <= 1
 0 <= x29 <= 1
 0 <= x30 <= 1
 0 <= x31 <= 1
 0 <= x32 <= 1
 0 <= x33 <= 1
 0 <= x34 <= 1
 0 <= x35 <= 1
 0 <= x36 <= 1
 0 <= x37 <= 1
 0 <= x38 <= 1
 0 <= x39 <= 1
 0 <= x40 <= 1
 0 <= x41 <= 1
 0 <= x42 <= 1
 0 <= x43 <= 1
 0 <= x44 <= 1
 0 <= x45 <= 1
 0 <= x46 <= 1
 0 <= x47 <= 1
 0 <= x48 <= 1
 0 <= x49 <= 1
 0 <= x50 <= 1
 0 <= x51 <= 1
 0 <= x52 <= 1
 0 <= x53 <= 1
 0 <= x54 <= 1
 0 <= x55 <= 1
 0 <= x56 <= 1
 0 <= x57 <= 1
 0 <= x58 <= 1
 0 <= x59 <= 1
 0 <= x60 <= 1
 0 <= x61 <= 1
 0 <= x62 <= 1
 0 <= x63 <= 1
 0 <= x64 <= 1
 0 <= x65 <= 1
 0 <= x66 <= 1
 0 <= x67 <= 1
 0 <= x68 <= 1
 0 <= x69 <= 1
 0 <= x70 <= 1
 0 <= x71 <= 1
 0 <= x72 <= 1
 0 <= x73 <= 1
 0 <= x74 <= 1
 0 <= x75 <= 1
 0 <= x76 <= 1
 0 <= x77 <= 1
 0 <= x78 <= 1
 0 <= x79 <= 1
 0 <= x80 <= 1
 0 <= x81 <= 1
 0 <= x82 <= 1
 0 <= x83 <= 1
 0 <= x84 <= 1
 0 <= x85 <= 1
 0 <= x86 <= 1
 0 <= x87 <= 1
 0 <= x88 <= 1
 0 <= x89 <= 1
 0 <= x90 <= 1
 0 <= x91 <= 1
 0 <= x92 <= 1
 0 <= x93 <= 1
 0 <= x94 <= 1
 0 <= x95 <= 1
 0 <= x96 <= 1
 0 <= x97 <= 1
 0 <= x98 <= 1
 0 <= x99 <= 1
 0 <= x100 <= 1
 0 <= x101 <= 1
 0 <= x102 <= 1
 0 <= x103 <= 1
 0 <= x104 <= 1
 0 <= x105 <= 1
 0 <= x106 <= 1
 0 <= x107 <= 1
 0 <= x108 <= 1
 0 <= x109 <= 1
 0 <= x110 <= 1
 0 <= x111 <= 1
 0 <= x112 <= 1
 0 <= x113 <= 1
 0 <= x114 <= 1
 0 <= x115 <= 1
 0 <= x116 <= 1
 0 <= x117 <= 1
 0 <= x118 <= 1
 0 <= x119 <= 1
 0 <= x120 <= 1
 0 <= x121 <= 1
 0 <= x122 <= 1
 0 <= x123 <= 1
 0 <= x124 <= 1
 0 <= x125 <= 1
 0 <= x126 <= 1
 0 <= x127 <= 1
 0 <= x128 <= 1
 0 <= x129 <= 1
 0 <= x130 <= 1
 0 <= x131 <= 1
 0 <= x132 <= 1
 0 <= x133 <= 1
 0 <= x134 <= 1
 0 <= x135 <= 1
 0 <= x136 <= 1
 0 <= x137 <= 1
 0 <= x138 <= 1
 0 <= x139 <= 1
 0 <= x140 <= 1
 0 <= x141 <= 1
 0 <= x142 <= 1
 0 <= x143 <= 1
 0 <= x144 <= 1
 0 <= x145 <= 1
 0 <= x146 <= 1
 0 <= x147 <= 1
 0 <= x148 <= 1
 0 <= x149 <= 1
 0 <= x150 <= 1
 0 <= x151 <= 1
 0 <= x152 <= 1
 0 <= x153 <= 1
 0 <= x154 <= 1
 0 <= x155 <= 1
 0 <= x156 <= 1
 0 <= x157 <= 1
 0 <= x158 <= 1
 0 <= x159 <= 1
 0 <= x160 <= 1
 0 <= x161 <= 1
 0 <= x162 <= 1
 0 <= x163 <= 1
 0 <= x164 <= 1
 0 <= x165 <= 1
 0 <= x166 <= 1
 0 <= x167 <= 1
 0 <= x168 <= 1
 0 <= x169 <= 1
 0 <= x170 <= 1
 0 <= x171 <= 1
 0 <= x172 <= 1
 0 <= x173 <= 1
 0 <= x174 <= 1
 0 <= x175 <= 1
 0 <= x176 <= 1
 0 <= x177 <= 1
 0 <= x178 <= 1
 0 <= x179 <= 1
 0 <= x180 <= 1
 0 <= x181 <= 1
 0 <= x182 <= 1
 0 <= x183 <= 1
 0 <= x184 <= 1
 0 <= x185 <= 1
 0 <= x186 <= 1
 0 <= x187 <= 1
 0 <= x188 <= 1
 0 <= x189 <= 1
 0 <= x190 <= 1
 0 <= x191 <= 1
 0 <= x192 <= 1
 0 <= x193 <= 1
 0 <= x194 <= 1
 0 <= x195 <= 1
 0 <= x196 <= 1
 0 <= x197 <= 1
 0 <= x198 <= 1
 0 <= x199 <= 1
 0 <= x200 <= 1
 0 <= x201 <= 1
 0 <= x202 <= 1
 0 <= x203 <= 1
 0 <= x204 <= 1
 0 <= x205 <= 1
 0 <= x206 <= 1
 0 <= x207 <= 1
 0 <= x208 <= 1
 0 <= x209 <= 1
 0 <= x210 <= 1
 0 <= x211 <= 1
 0 <= x212 <= 1
 0 <= x213 <= 1
 0 <= x214 <= 1
 0 <= x215 <= 1
 0 <= x216 <= 1
 0 <= x217 <= 1
 0 <= x218 <= 1
 0 <= x219 <= 1
 0 <= x220 <= 1
 0 <= x221 <= 1
 0 <= x222 <= 1
 0 <= x223 <= 1
 0 <= x224 <= 1
 0 <= x225 <= 1
 0 <= x226 <= 1
 0 <= x227 <= 1
 0 <= x228 <= 1
 0 <= x229 <= 1
 0 <= x230 <= 1
 0 <= x231 <= 1
 0 <= x232 <= 1
 0 <= x233 <= 1
 0 <= x234 <= 1
 0 <= x235 <= 1
 0 <= x236 <= 1
 0 <= x237 <= 1
 0 <= x238 <= 1
 0 <= x239 <= 1
 0 <= x240 <= 1
 0 <= x241 <= 1
 0 <= x242 <= 1
 0 <= x243 <= 1
 0 <= x244 <= 1
 0 <= x245 <= 1
 0 <= x246 <= 1
 0 <= x247 <= 1
 0 <= x248 <= 1
 0 <= x249 <= 1
 0 <= x250 <= 1
 0 <= x251 <= 1
 0 <= x252 <= 1
 0 <= x253 <= 1
 0 <= x254 <= 1
 0 <= x255 <= 1
 0 <= x256 <= 1
 0 <= x257 <= 1
 0 <= x258 <= 1
 0 <= x259 <= 1
 0 <= x260 <= 1
 0 <= x261 <= 1
 0 <= x262 <= 1
 0 <= x263 <= 1
 0 <= x264 <= 1
 0 <= x265 <= 1
 0 <= x266 <= 1
 0 <= x267 <= 1
 0 <= x268 <= 1
 0 <= x269 <= 1
 0 <= x270 <= 1
 0 <= x271 <= 1
 0 <= x272 <= 1
 0 <= x273 <= 1
 0 <= x274 <= 1
 0 <= x275 <= 1
 0 <= x276 <= 1
 0 <= x277 <= 1
 0 <= x278 <= 1
 0 <= x279 <= 1
 0 <= x280 <= 1
 0 <= x281 <= 1
 0 <= x282 <= 1
 0 <= x283 <= 1
 0 <= x284 <= 1
 0 <= x285 <= 1
 0 <= x286 <= 1
 0 <= x287 <= 1
 0 <= x288 <= 1
 0 <= x289 <= 1
 0 <= x290 <= 1
 0 <= x291 <= 1
 0 <= x292 <= 1
 0 <= x293 <= 1
 0 <= x294 <= 1
 0 <= x295 <= 1
 0 <= x296 <= 1
 0 <= x297 <= 1
 0 <= x298 <= 1
 0 <= x299 <= 1
 0 <= x300 <= 1
 0 <= x301 <= 1
 0 <= x302 <= 1
 0 <= x303 <= 1
 0 <= x304 <= 1
 0 <= x305 <= 1
 0 <= x306 <= 1
 0 <= x307 <= 1
 0 <= x308 <= 1
 0 <= x309 <= 1
 0 <= x310 <= 1
 0 <= x311 <= 1
 0 <= x312 <= 1
 0 <= x313 <= 1
 0 <= x314 <= 1
 0 <= x315 <= 1
 0 <= x316 <= 1
 0 <= x317 <= 1
 0 <= x318 <= 1
 0 <= x319 <= 1
 0 <= x320 <= 1
 0 <= x321 <= 1
 0 <= x322 <= 1
 0 <= x323 <= 1
 0 <= x324 <= 1
 0 <= x325 <= 1
 0 <= x326 <= 1
 0 <= x327 <= 1
 0 <= x328 <= 1
 0 <= x329 <= 1
 0 <= x330 <= 1
 0 <= x331 <= 1
 0 <= x332 <= 1
 0 <= x333 <= 1
 0 <= x334 <= 1
 0 <= x335 <= 1
 0 <= x336 <= 1
 0 <= x337 <= 1
 0 <= x338 <= 1
 0 <= x339 <= 1
 0 <= x340 <= 1
 0 <= x341 <= 1
 0 <= x342 <= 1
 0 <= x343 <= 1
 0 <= x344 <= 1
 0 <= x345 <= 1
 0 <= x346 <= 1
 0 <= x347 <= 1
 0 <= x348 <= 1
 0 <= x349 <= 1
 0 <= x350 <= 1
 0 <= x351 <= 1
 0 <= x352 <= 1
 0 <= x353 <= 1
 0 <= x354 <= 1
 0 <= x355 <= 1
 0 <= x356 <= 1
 0 <= x357 <= 1
 0 <= x358 <= 1
 0 <= x359 <= 1
 0 <= x360 <= 1
Binaries
 x301  x302  x303  x304  x305  x306  x307  x308  x309  x310  x311  x312  x313 
 x314  x315  x316  x317  x318  x319  x320  x321  x322  x323  x324  x325  x326 
 x327  x328  x329  x330  x331  x332  x333  x334  x335  x336  x337  x338  x339 
 x340  x341  x342  x343  x344  x345  x346  x347  x348  x349  x350  x351  x352 
 x353  x354  x355  x356  x357  x358  x359  x360 
End
